data/OOEBPP/R750/BPP_750_120_0.2_0.8_6.txt.ins
750
120 120
1 96 104
2 96 674
3 96 507
4 96 829
5 96 206
6 96 86
7 96 535
8 96 815
9 96 877
10 96 327
11 96 911
12 96 273
13 96 523
14 96 56
15 96 105
16 96 768
17 96 441
18 95 902
19 95 271
20 95 416
21 95 579
22 95 780
23 95 968
24 95 355
25 95 215
26 94 192
27 94 284
28 94 580
29 94 356
30 94 107
31 94 831
32 94 430
33 94 826
34 94 880
35 93 167
36 93 105
37 93 680
38 93 165
39 93 267
40 93 122
41 93 613
42 93 512
43 93 136
44 93 513
45 93 0
46 92 235
47 92 911
48 92 391
49 92 75
50 92 721
51 92 250
52 92 527
53 92 72
54 92 918
55 92 369
56 91 720
57 91 247
58 91 794
59 91 373
60 91 869
61 91 829
62 91 216
63 91 264
64 91 809
65 91 330
66 90 579
67 90 854
68 90 969
69 90 681
70 90 314
71 90 93
72 90 878
73 89 570
74 89 275
75 89 394
76 89 932
77 89 683
78 89 73
79 89 371
80 89 725
81 88 514
82 88 513
83 88 741
84 88 421
85 88 74
86 88 108
87 88 357
88 88 870
89 88 705
90 88 132
91 88 224
92 87 915
93 87 618
94 87 168
95 87 947
96 87 664
97 87 81
98 87 870
99 87 532
100 87 4
101 87 318
102 86 892
103 86 937
104 86 390
105 86 425
106 86 894
107 86 306
108 86 784
109 86 545
110 86 131
111 86 700
112 86 213
113 85 942
114 85 883
115 85 572
116 85 197
117 85 502
118 85 162
119 85 814
120 85 731
121 85 101
122 84 566
123 84 476
124 84 209
125 84 802
126 84 556
127 84 314
128 84 825
129 84 992
130 84 672
131 84 243
132 84 985
133 84 570
134 83 173
135 83 805
136 83 73
137 83 714
138 83 854
139 83 212
140 83 9
141 83 147
142 83 95
143 83 503
144 83 414
145 82 290
146 82 136
147 82 335
148 82 114
149 82 90
150 82 296
151 82 840
152 82 838
153 82 425
154 82 210
155 82 423
156 81 716
157 81 514
158 81 518
159 81 552
160 81 443
161 81 355
162 81 301
163 81 173
164 81 936
165 80 754
166 80 734
167 80 636
168 80 966
169 80 965
170 80 226
171 80 240
172 80 415
173 80 327
174 80 688
175 80 606
176 79 894
177 79 337
178 79 500
179 79 757
180 79 708
181 79 650
182 79 325
183 79 891
184 79 118
185 78 564
186 78 261
187 78 734
188 78 502
189 78 267
190 78 713
191 78 166
192 78 534
193 78 789
194 77 164
195 77 146
196 77 887
197 77 815
198 77 971
199 77 380
200 77 612
201 77 7
202 77 410
203 77 423
204 77 40
205 77 831
206 77 54
207 77 267
208 76 582
209 76 834
210 76 822
211 76 631
212 76 294
213 76 145
214 76 783
215 76 277
216 76 388
217 76 532
218 76 642
219 76 380
220 76 541
221 76 763
222 75 499
223 75 863
224 75 994
225 75 64
226 75 193
227 75 301
228 75 468
229 75 962
230 75 630
231 75 952
232 75 131
233 75 340
234 74 171
235 74 95
236 74 534
237 74 954
238 74 377
239 74 481
240 74 660
241 74 183
242 74 838
243 74 16
244 74 190
245 74 367
246 73 322
247 73 840
248 73 544
249 73 25
250 73 50
251 73 740
252 73 405
253 73 146
254 73 621
255 72 647
256 72 129
257 72 339
258 72 356
259 72 597
260 72 722
261 72 397
262 72 244
263 71 328
264 71 904
265 71 832
266 71 199
267 71 108
268 71 965
269 71 984
270 71 538
271 71 898
272 70 591
273 70 681
274 70 173
275 70 561
276 70 844
277 70 769
278 70 6
279 70 897
280 70 35
281 70 347
282 70 983
283 70 429
284 70 563
285 70 658
286 69 563
287 69 831
288 69 898
289 69 841
290 69 282
291 69 483
292 69 647
293 69 921
294 69 395
295 68 195
296 68 207
297 68 754
298 68 476
299 68 828
300 68 270
301 68 737
302 68 180
303 68 441
304 67 139
305 67 459
306 67 134
307 67 238
308 67 809
309 67 802
310 67 68
311 67 621
312 66 717
313 66 374
314 66 288
315 66 339
316 66 466
317 66 685
318 66 323
319 66 599
320 66 726
321 65 777
322 65 711
323 65 720
324 65 810
325 65 439
326 65 668
327 65 115
328 65 70
329 65 241
330 65 398
331 65 650
332 65 267
333 65 462
334 65 485
335 64 9
336 64 527
337 64 881
338 64 927
339 64 131
340 64 27
341 64 447
342 64 675
343 64 269
344 64 930
345 64 708
346 64 489
347 63 791
348 63 771
349 63 260
350 63 393
351 63 377
352 63 776
353 63 115
354 63 735
355 63 940
356 63 675
357 63 333
358 63 439
359 63 550
360 63 856
361 62 585
362 62 286
363 62 521
364 62 665
365 62 788
366 62 873
367 62 742
368 62 578
369 62 83
370 62 520
371 62 73
372 62 87
373 62 429
374 61 24
375 61 666
376 61 370
377 61 309
378 61 704
379 61 966
380 61 604
381 61 54
382 61 629
383 61 58
384 61 391
385 61 109
386 61 270
387 60 495
388 60 555
389 60 207
390 60 436
391 60 145
392 60 633
393 60 958
394 60 911
395 60 127
396 60 797
397 59 951
398 59 215
399 59 89
400 59 962
401 59 751
402 59 523
403 59 124
404 59 151
405 58 187
406 58 646
407 58 894
408 58 941
409 58 869
410 58 331
411 58 562
412 58 777
413 58 157
414 58 222
415 58 160
416 58 256
417 58 954
418 58 798
419 58 949
420 57 265
421 57 320
422 57 554
423 57 138
424 57 476
425 56 240
426 56 263
427 56 733
428 56 371
429 56 285
430 56 618
431 56 461
432 56 589
433 56 102
434 55 594
435 55 591
436 55 476
437 55 1000
438 55 240
439 55 288
440 55 130
441 55 703
442 55 259
443 55 603
444 55 349
445 55 370
446 54 840
447 54 889
448 54 963
449 54 541
450 54 960
451 54 300
452 54 686
453 54 996
454 54 763
455 54 13
456 53 272
457 53 100
458 53 86
459 53 444
460 53 548
461 53 409
462 53 784
463 52 327
464 52 621
465 52 122
466 52 491
467 52 972
468 52 945
469 52 566
470 52 454
471 52 620
472 52 647
473 52 448
474 52 433
475 51 837
476 51 475
477 51 309
478 51 36
479 51 947
480 50 29
481 50 463
482 50 47
483 50 846
484 50 445
485 50 586
486 50 141
487 50 47
488 50 711
489 50 37
490 50 131
491 50 662
492 50 887
493 50 439
494 49 590
495 49 169
496 49 987
497 49 316
498 49 256
499 49 468
500 49 330
501 49 444
502 49 165
503 49 654
504 48 315
505 48 357
506 48 140
507 48 78
508 48 208
509 48 684
510 48 565
511 48 304
512 48 651
513 47 103
514 47 693
515 47 530
516 47 852
517 47 37
518 47 944
519 47 669
520 47 962
521 47 343
522 46 109
523 46 223
524 46 140
525 46 462
526 46 229
527 46 733
528 46 32
529 46 326
530 46 10
531 46 528
532 45 770
533 45 621
534 45 38
535 45 382
536 45 407
537 45 6
538 45 117
539 44 525
540 44 270
541 44 22
542 44 113
543 44 348
544 44 671
545 44 43
546 44 206
547 44 369
548 44 200
549 43 269
550 43 786
551 43 302
552 43 530
553 43 504
554 43 741
555 43 449
556 43 489
557 43 228
558 43 639
559 43 729
560 43 542
561 42 30
562 42 553
563 42 700
564 42 480
565 42 546
566 42 726
567 42 338
568 42 657
569 42 28
570 42 553
571 41 542
572 41 359
573 41 699
574 41 498
575 41 655
576 41 98
577 41 616
578 41 291
579 40 578
580 40 759
581 40 486
582 40 947
583 40 748
584 40 87
585 40 533
586 40 848
587 40 695
588 40 390
589 40 545
590 39 240
591 39 781
592 39 499
593 39 919
594 39 681
595 38 30
596 38 800
597 38 908
598 38 108
599 38 47
600 38 385
601 38 393
602 38 195
603 38 957
604 38 359
605 38 31
606 38 880
607 37 962
608 37 3
609 37 183
610 37 859
611 37 933
612 37 151
613 37 88
614 37 563
615 37 83
616 37 675
617 37 832
618 37 439
619 36 463
620 36 312
621 36 287
622 36 924
623 36 644
624 36 771
625 36 103
626 36 664
627 35 298
628 35 822
629 35 85
630 35 555
631 35 294
632 35 63
633 35 189
634 34 223
635 34 411
636 34 532
637 34 320
638 34 493
639 34 739
640 34 74
641 34 144
642 33 168
643 33 453
644 33 63
645 33 141
646 33 87
647 33 220
648 33 889
649 32 970
650 32 972
651 32 195
652 32 329
653 32 65
654 32 757
655 32 532
656 31 22
657 31 830
658 31 205
659 31 375
660 31 621
661 31 796
662 31 816
663 31 290
664 31 876
665 31 51
666 31 494
667 31 112
668 31 898
669 30 795
670 30 636
671 30 895
672 30 542
673 30 851
674 30 450
675 30 908
676 30 703
677 30 658
678 30 293
679 29 898
680 29 290
681 29 198
682 29 933
683 29 103
684 29 783
685 29 72
686 29 465
687 29 365
688 29 40
689 29 447
690 29 135
691 29 596
692 29 859
693 29 335
694 28 27
695 28 369
696 28 602
697 28 98
698 28 81
699 28 661
700 28 348
701 28 2
702 28 905
703 28 420
704 27 969
705 27 876
706 27 100
707 27 980
708 27 158
709 27 124
710 27 309
711 27 460
712 27 639
713 27 841
714 27 873
715 27 953
716 26 22
717 26 966
718 26 723
719 26 594
720 26 354
721 26 376
722 26 701
723 26 300
724 26 953
725 26 342
726 25 150
727 25 853
728 25 999
729 25 252
730 25 412
731 25 668
732 25 645
733 25 971
734 25 314
735 24 224
736 24 895
737 24 717
738 24 199
739 24 687
740 24 741
741 24 493
742 24 777
743 24 65
744 24 9
745 24 421
746 24 123
747 24 522
748 24 122
749 24 61
750 24 909
