results/OOEBPP/BPP_750_120_0.2_0.8_6.txt.ins.log
222,221.281,26.5308,OPT,8215,0,0,AI,0,0.0540541,3.09459,0.390011,25.6727,0,2,0,57,56
